n= 1
m= 50
1000
155	36	6
84	56	8
76	63	9
40	48	8
156	40	5
113	25	5
187	54	9
137	45	9
49	64	8
117	56	7
34	63	9
113	40	5
91	48	8
199	72	9
183	36	6
152	49	7
105	54	9
21	42	7
169	54	9
91	40	5
187	64	8
193	48	6
16	49	7
191	30	5
176	56	8
134	35	5
27	36	6
134	48	8
120	35	5
94	49	7
51	40	8
196	45	5
53	40	8
25	54	6
102	42	7
154	81	9
64	81	9
10	40	8
12	40	5
97	81	9
118	35	5
71	40	5
88	36	6
186	54	9
89	30	6
185	72	8
188	42	7
178	36	6
32	56	7
151	63	7
